TERM = { '.', 's(2)', 'local_0', 's(1)', 's(0)', 's(3)', 'in_0'};
null = '.';
s = 7;
n = 10;
ndeps = 3;
max_registers_sz = 3;
NR = 0;
registers = [| |];
dependencies = [|'call[function_index(0)]_0', 'i32.load8_s_4', |'i32.load8_s_4', 'call[function_index(1)]_5', |'call[function_index(1)]_5', 'i32.store8_6'|];
GET_ENUM = { GET1, GET2, GET3};
SET_ENUM = { SET1, SET2, SET3};
TEE_ENUM = { TEE1, TEE2, TEE3};
N = 5;
OP = { 'call[function_index(0)]_0', 'call[function_index(1)]_5', 'i32.load8_s_4', 'i32.store8_6', 'local.get_0' };
in_ops = [1, 1, 1, 2, 0 ];
out_ops = [3, 0, 1, 0, 1 ];
in1 = ['in_0', 's(3)', 'local_0', 'local_0', '.' ];
in2 = ['.', '.', '.', 's(2)', '.' ];
in3 = ['.', '.', '.', '.', '.' ];
out1 = ['s(2)', '.', 's(3)', '.', 'local_0' ];
out2 = ['s(1)', '.', '.', '.', '.' ];
out3 = ['s(0)', '.', '.', '.', '.' ];
comm = [false, false, false, false, false ];
gas = [1, 1, 1, 1, 1 ];
sz = [1, 1, 1, 1, 1 ];
stor = [true, true, false, true, false ];
lb = [ 1, 1, 1, 1, 1 ];
ub = [ 7, 7, 7, 7, 7 ];
startstack = [ 'in_0', null, null, null, null, null, null, null, null, null ];
endstack = [ 's(1)', 's(0)', null, null, null, null, null, null, null, null ];
